c WARNING: for repeatability, setting FPU to use double precision
d VARIABLES            222532       
d CONSTRAINTS          823132       
c ============================[ Problem Statistics ]=============================
c |                                                                             |
c |  Number of variables:        222532                                         |
c |  Number of clauses:          823132                                         |
c |  Parse time:                   0.16 s                                       |
c |                                                                             |
c ============================[ Search Statistics ]==============================
c | Conflicts |          ORIGINAL         |          LEARNT          | Progress |
c |           |    Vars  Clauses Literals |    Limit  Clauses Lit/Cl |          |
c ===============================================================================
c |       100 |  183066   721106  1810279 |   264405       99     16 | 17.735 % |
c |       250 |  183066   721106  1810279 |   290846      249     33 | 17.735 % |
c |       475 |  183066   721102  1810269 |   319930      474     40 | 17.735 % |
c |       812 |  183066   721102  1810269 |   351923      811     28 | 17.735 % |
c |      1318 |  183066   721102  1810269 |   387116     1317     33 | 17.735 % |
c |      2077 |  183066   721102  1810269 |   425827     2076     26 | 17.735 % |
c |      3216 |  183066   721102  1810269 |   468410     3215     98 | 17.735 % |
c |      4924 |  183066   721102  1810269 |   515251     4923     81 | 17.735 % |
c |      7486 |  183066   721102  1810269 |   566776     7485     75 | 17.735 % |
c |     11330 |  183066   721102  1810269 |   623454    11329     70 | 17.735 % |
c |     17096 |  183066   721102  1810269 |   685799    17095     57 | 17.735 % |
c |     25745 |  183066   721102  1810269 |   754379    25744     50 | 17.735 % |
c |     38719 |  183066   721102  1810269 |   829817    38718     59 | 17.735 % |
c |     58180 |  182903   720984  1809985 |   912799    58123     67 | 17.808 % |
c ===============================================================================
c restarts              : 188
c conflicts             : 59077          (2048 /sec)
c decisions             : 726426         (0.00 % random) (25180 /sec)
c propagations          : 185314604      (6423427 /sec)
c conflict literals     : 3943413        (15.09 % deleted)
d RESTARTS             188
d FAILURES             59077        
d NODES                726426       
d BACKTRACKS           726426       
d PROPAGATIONS         185314604    
d NOGOODSIZE           66.75 
d MEMORY               83.00 
d TIME                 28.8498 

s UNSATISFIABLE
